c Generated map
c Size: 8 * 8, weights in range: 1 to 10, walls: False, with ratio 0.0
c dim 6 of 9
c
p sp 64 112
c graph contains 64 nodes and 112 arcs
c
a 1 9 9
a 9 1 9
a 1 2 4
a 2 1 4
a 2 10 6
a 10 2 6
a 2 3 6
a 3 2 6
a 3 11 6
a 11 3 6
a 3 4 7
a 4 3 7
a 4 12 8
a 12 4 8
a 4 5 9
a 5 4 9
a 5 13 8
a 13 5 8
a 5 6 5
a 6 5 5
a 6 14 10
a 14 6 10
a 6 7 6
a 7 6 6
a 7 15 6
a 15 7 6
a 7 8 1
a 8 7 1
a 8 16 2
a 16 8 2
a 9 17 4
a 17 9 4
a 9 10 4
a 10 9 4
a 10 18 6
a 18 10 6
a 10 11 8
a 11 10 8
a 11 19 8
a 19 11 8
a 11 12 1
a 12 11 1
a 12 20 3
a 20 12 3
a 12 13 3
a 13 12 3
a 13 21 7
a 21 13 7
a 13 14 5
a 14 13 5
a 14 22 8
a 22 14 8
a 14 15 6
a 15 14 6
a 15 23 10
a 23 15 10
a 15 16 5
a 16 15 5
a 16 24 9
a 24 16 9
a 17 25 3
a 25 17 3
a 17 18 9
a 18 17 9
a 18 26 2
a 26 18 2
a 18 19 5
a 19 18 5
a 19 27 10
a 27 19 10
a 19 20 9
a 20 19 9
a 20 28 1
a 28 20 1
a 20 21 3
a 21 20 3
a 21 29 4
a 29 21 4
a 21 22 5
a 22 21 5
a 22 30 4
a 30 22 4
a 22 23 8
a 23 22 8
a 23 31 7
a 31 23 7
a 23 24 5
a 24 23 5
a 24 32 8
a 32 24 8
a 25 33 8
a 33 25 8
a 25 26 5
a 26 25 5
a 26 34 10
a 34 26 10
a 26 27 8
a 27 26 8
a 27 35 5
a 35 27 5
a 27 28 2
a 28 27 2
a 28 36 9
a 36 28 9
a 28 29 1
a 29 28 1
a 29 37 8
a 37 29 8
a 29 30 7
a 30 29 7
a 30 38 8
a 38 30 8
a 30 31 10
a 31 30 10
a 31 39 2
a 39 31 2
a 31 32 8
a 32 31 8
a 32 40 6
a 40 32 6
a 33 41 5
a 41 33 5
a 33 34 1
a 34 33 1
a 34 42 10
a 42 34 10
a 34 35 2
a 35 34 2
a 35 43 7
a 43 35 7
a 35 36 4
a 36 35 4
a 36 44 1
a 44 36 1
a 36 37 9
a 37 36 9
a 37 45 4
a 45 37 4
a 37 38 1
a 38 37 1
a 38 46 2
a 46 38 2
a 38 39 3
a 39 38 3
a 39 47 9
a 47 39 9
a 39 40 5
a 40 39 5
a 40 48 6
a 48 40 6
a 41 49 2
a 49 41 2
a 41 42 8
a 42 41 8
a 42 50 1
a 50 42 1
a 42 43 10
a 43 42 10
a 43 51 4
a 51 43 4
a 43 44 8
a 44 43 8
a 44 52 9
a 52 44 9
a 44 45 3
a 45 44 3
a 45 53 10
a 53 45 10
a 45 46 2
a 46 45 2
a 46 54 7
a 54 46 7
a 46 47 10
a 47 46 10
a 47 55 5
a 55 47 5
a 47 48 9
a 48 47 9
a 48 56 4
a 56 48 4
a 49 57 9
a 57 49 9
a 49 50 10
a 50 49 10
a 50 58 5
a 58 50 5
a 50 51 10
a 51 50 10
a 51 59 9
a 59 51 9
a 51 52 10
a 52 51 10
a 52 60 9
a 60 52 9
a 52 53 3
a 53 52 3
a 53 61 2
a 61 53 2
a 53 54 10
a 54 53 10
a 54 62 5
a 62 54 5
a 54 55 1
a 55 54 1
a 55 63 8
a 63 55 8
a 55 56 8
a 56 55 8
a 56 64 9
a 64 56 9
a 57 58 7
a 58 57 7
a 58 59 3
a 59 58 3
a 59 60 4
a 60 59 4
a 60 61 10
a 61 60 10
a 61 62 8
a 62 61 8
a 62 63 10
a 63 62 10
a 63 64 3
a 64 63 3
